\* EMD *\
Minimize
OBJ: 20.1246117975 x0_0 + 20.7725780778 x0_1 + 20.7123151772 x0_2
 + 31.304951685 x0_3 + 35.9235298934 x1_0 + 35.6651090003 x1_1
 + 35.5527776693 x1_2 + 41.3037528561 x1_3 + 24.1971072651 x2_0
 + 22.8363744933 x2_1 + 24.1246761636 x2_2 + 27.3861278753 x2_3
 + 21.8860686282 x3_0 + 22.3494966386 x3_1 + 22.5610283454 x3_2
 + 31.9843711834 x3_3
Subject To
_C1: x0_0 + x0_1 + x0_2 + x0_3 + x1_0 + x1_1 + x1_2 + x1_3 + x2_0 + x2_1
 + x2_2 + x2_3 + x3_0 + x3_1 + x3_2 + x3_3 = 1
_C2: x0_0 + x0_1 + x0_2 + x0_3 <= 0.25
_C3: x1_0 + x1_1 + x1_2 + x1_3 <= 0.25
_C4: x2_0 + x2_1 + x2_2 + x2_3 <= 0.25
_C5: x3_0 + x3_1 + x3_2 + x3_3 <= 0.25
_C6: x0_0 + x1_0 + x2_0 + x3_0 <= 0.25
_C7: x0_1 + x1_1 + x2_1 + x3_1 <= 0.25
_C8: x0_2 + x1_2 + x2_2 + x3_2 <= 0.25
_C9: x0_3 + x1_3 + x2_3 + x3_3 <= 0.25
End
